9
[-1, 329, 377, 307, 370, 429, 425, 354, 481, 
329, -1, 416, 377, 558, 556, 531, 557, 448, 
377, 416, -1, 392, 517, 216, 372, 374, 465, 
307, 377, 392, -1, 290, 395, 198, 333, 185, 
370, 558, 517, 290, -1, 410, 311, 457, 413, 
429, 556, 216, 395, 410, -1, 293, 373, 470, 
425, 531, 372, 198, 311, 293, -1, 305, 237, 
354, 557, 374, 333, 457, 373, 305, -1, 453, 
481, 448, 465, 185, 413, 470, 237, 453, -1]